912643
31 28 12751
28 13 6411
13 23 20028
23 38 7449
38 29 745
29 36 16895
36 7 11794
7 18 20722
18 21 18931
21 10 5744
10 35 6355
35 11 5412
11 1 8732
1 6 25297
6 9 47658
9 8 54349
8 15 26227
15 17 45489
17 14 42391
14 3 30026
3 16 71701
16 2 57771
2 27 15288
27 40 17541
40 19 13572
19 4 26533
4 22 23621
22 24 45980
24 5 63665
5 32 3290
32 20 24202
20 26 24941
26 33 15458
33 12 3967
12 34 39715
34 25 30137
25 39 4093
39 37 6534
37 30 941
30 31 10287
